; ./seahorn/./sv_comp_flat_small/array-examples/standard_init6_true-unreach-call_ground.c.flat_000.smt2
(set-logic HORN)

(declare-fun |main_1| ( Int Int Int Int Int Int Int Int Int ) Bool)

(assert
  (forall ( (A Int) (B Int) (C Int) (D Int) (E Int) (F Int) (G Int) (H Int) (v_8 Int) ) 
    (=>
      (and
        (and true (= 0 v_8))
      )
      (main_1 v_8 A B C D E F G H)
    )
  )
)
(assert
  (forall ( (A Int) (B Int) (C Int) (D Int) (E Int) (F Int) (G Int) (H Int) (I Int) (J Int) (K Bool) (L Int) (M Bool) (N Bool) (O Int) (v_15 Int) (v_16 Int) ) 
    (=>
      (and
        (main_1 v_15 C D E F G H I J)
        (and (= 0 v_15)
     (or (= B O) (not N) (not K))
     (or (= O 0) (not N) (not K))
     (or (not M) (and K N))
     (= M true)
     (= A L)
     (= 1 v_16))
      )
      (main_1 v_16 C L E F G H I B)
    )
  )
)
(assert
  (forall ( (A Int) (B Bool) (C Int) (D Int) (E Int) (F Int) (G Int) (H Int) (I Int) (J Int) (K Int) (L Bool) (M Int) (N Int) (O Bool) (P Bool) (v_16 Int) (v_17 Int) ) 
    (=>
      (and
        (main_1 v_16 D E F G H I J K)
        (and (= 1 v_16)
     (= A (+ E (* 4 K)))
     (= N (+ 1 K))
     (or (= C M) (not P) (not L))
     (or (= M N) (not P) (not L))
     (or B (not P) (not L))
     (or (not O) (and L P))
     (= O true)
     (not (= (<= 100000 N) B))
     (= 1 v_17))
      )
      (main_1 v_17 D E F G H I J C)
    )
  )
)
(assert
  (forall ( (A Int) (B Int) (C Bool) (D Int) (E Int) (F Int) (G Int) (H Int) (I Int) (J Int) (K Int) (L Bool) (M Int) (N Bool) (O Bool) (P Bool) (Q Bool) (R Int) (v_18 Int) (v_19 Int) ) 
    (=>
      (and
        (main_1 v_18 D E F G H I J K)
        (and (= 1 v_18)
     (= B (+ E (* 4 K)))
     (= M (+ 1 K))
     (or (not C) (not O) (not L))
     (or (= A R) (not Q) (not N))
     (or (= R 0) (not Q) (not N))
     (or (not P) (and N Q))
     (or (not N) (and L O))
     (= P true)
     (not (= (<= 100000 M) C))
     (= 2 v_19))
      )
      (main_1 v_19 D E F G H I A K)
    )
  )
)
(assert
  (forall ( (A Int) (B Bool) (C Int) (D Int) (E Int) (F Int) (G Int) (H Int) (I Int) (J Int) (K Int) (L Bool) (M Int) (N Int) (O Bool) (P Bool) (v_16 Int) (v_17 Int) ) 
    (=>
      (and
        (main_1 v_16 D E F G H I J K)
        (and (= 2 v_16)
     (= A (+ E (* 4 J)))
     (= N (+ 1 J))
     (or (= C M) (not P) (not L))
     (or (= M N) (not P) (not L))
     (or B (not P) (not L))
     (or (not O) (and L P))
     (= O true)
     (not (= (<= 100000 N) B))
     (= 2 v_17))
      )
      (main_1 v_17 D E F G H I C K)
    )
  )
)
(assert
  (forall ( (A Int) (B Int) (C Bool) (D Int) (E Int) (F Int) (G Int) (H Int) (I Int) (J Int) (K Int) (L Bool) (M Int) (N Bool) (O Bool) (P Bool) (Q Bool) (R Int) (v_18 Int) (v_19 Int) ) 
    (=>
      (and
        (main_1 v_18 D E F G H I J K)
        (and (= 2 v_18)
     (= B (+ E (* 4 J)))
     (= M (+ 1 J))
     (or (not C) (not O) (not L))
     (or (= A R) (not Q) (not N))
     (or (= R 0) (not Q) (not N))
     (or (not P) (and N Q))
     (or (not N) (and L O))
     (= P true)
     (not (= (<= 100000 M) C))
     (= 3 v_19))
      )
      (main_1 v_19 D E F G H A J K)
    )
  )
)
(assert
  (forall ( (A Int) (B Bool) (C Int) (D Int) (E Int) (F Int) (G Int) (H Int) (I Int) (J Int) (K Int) (L Bool) (M Int) (N Int) (O Bool) (P Bool) (v_16 Int) (v_17 Int) ) 
    (=>
      (and
        (main_1 v_16 D E F G H I J K)
        (and (= 3 v_16)
     (= A (+ E (* 4 I)))
     (= N (+ 1 I))
     (or (= C M) (not P) (not L))
     (or (= M N) (not P) (not L))
     (or B (not P) (not L))
     (or (not O) (and L P))
     (= O true)
     (not (= (<= 100000 N) B))
     (= 3 v_17))
      )
      (main_1 v_17 D E F G H C J K)
    )
  )
)
(assert
  (forall ( (A Int) (B Int) (C Bool) (D Int) (E Int) (F Int) (G Int) (H Int) (I Int) (J Int) (K Int) (L Bool) (M Int) (N Bool) (O Bool) (P Bool) (Q Bool) (R Int) (v_18 Int) (v_19 Int) ) 
    (=>
      (and
        (main_1 v_18 D E F G H I J K)
        (and (= 3 v_18)
     (= B (+ E (* 4 I)))
     (= M (+ 1 I))
     (or (not C) (not O) (not L))
     (or (= A R) (not Q) (not N))
     (or (= R 0) (not Q) (not N))
     (or (not P) (and N Q))
     (or (not N) (and L O))
     (= P true)
     (not (= (<= 100000 M) C))
     (= 4 v_19))
      )
      (main_1 v_19 D E F G A I J K)
    )
  )
)
(assert
  (forall ( (A Int) (B Bool) (C Int) (D Int) (E Int) (F Int) (G Int) (H Int) (I Int) (J Int) (K Int) (L Bool) (M Int) (N Int) (O Bool) (P Bool) (v_16 Int) (v_17 Int) ) 
    (=>
      (and
        (main_1 v_16 D E F G H I J K)
        (and (= 4 v_16)
     (= A (+ E (* 4 H)))
     (= N (+ 1 H))
     (or (= C M) (not P) (not L))
     (or (= M N) (not P) (not L))
     (or B (not P) (not L))
     (or (not O) (and L P))
     (= O true)
     (not (= (<= 100000 N) B))
     (= 4 v_17))
      )
      (main_1 v_17 D E F G C I J K)
    )
  )
)
(assert
  (forall ( (A Int) (B Int) (C Bool) (D Int) (E Int) (F Int) (G Int) (H Int) (I Int) (J Int) (K Int) (L Bool) (M Int) (N Bool) (O Bool) (P Bool) (Q Bool) (R Int) (v_18 Int) (v_19 Int) ) 
    (=>
      (and
        (main_1 v_18 D E F G H I J K)
        (and (= 4 v_18)
     (= B (+ E (* 4 H)))
     (= M (+ 1 H))
     (or (not C) (not O) (not L))
     (or (= A R) (not Q) (not N))
     (or (= R 0) (not Q) (not N))
     (or (not P) (and N Q))
     (or (not N) (and L O))
     (= P true)
     (not (= (<= 100000 M) C))
     (= 5 v_19))
      )
      (main_1 v_19 D E F A H I J K)
    )
  )
)
(assert
  (forall ( (A Int) (B Bool) (C Int) (D Int) (E Int) (F Int) (G Int) (H Int) (I Int) (J Int) (K Int) (L Bool) (M Int) (N Int) (O Bool) (P Bool) (v_16 Int) (v_17 Int) ) 
    (=>
      (and
        (main_1 v_16 D E F G H I J K)
        (and (= 5 v_16)
     (= A (+ E (* 4 G)))
     (= N (+ 1 G))
     (or (= C M) (not P) (not L))
     (or (= M N) (not P) (not L))
     (or B (not P) (not L))
     (or (not O) (and L P))
     (= O true)
     (not (= (<= 100000 N) B))
     (= 5 v_17))
      )
      (main_1 v_17 D E F C H I J K)
    )
  )
)
(assert
  (forall ( (A Int) (B Int) (C Bool) (D Int) (E Int) (F Int) (G Int) (H Int) (I Int) (J Int) (K Int) (L Bool) (M Int) (N Bool) (O Bool) (P Bool) (Q Bool) (R Int) (v_18 Int) (v_19 Int) ) 
    (=>
      (and
        (main_1 v_18 D E F G H I J K)
        (and (= 5 v_18)
     (= B (+ E (* 4 G)))
     (= M (+ 1 G))
     (or (not C) (not O) (not L))
     (or (= A R) (not Q) (not N))
     (or (= R 0) (not Q) (not N))
     (or (not P) (and N Q))
     (or (not N) (and L O))
     (= P true)
     (not (= (<= 100000 M) C))
     (= 6 v_19))
      )
      (main_1 v_19 D E A G H I J K)
    )
  )
)
(assert
  (forall ( (A Int) (B Bool) (C Int) (D Int) (E Int) (F Int) (G Int) (H Int) (I Int) (J Int) (K Int) (L Bool) (M Int) (N Int) (O Bool) (P Bool) (v_16 Int) (v_17 Int) ) 
    (=>
      (and
        (main_1 v_16 D E F G H I J K)
        (and (= 6 v_16)
     (= A (+ E (* 4 F)))
     (= N (+ 1 F))
     (or (= C M) (not P) (not L))
     (or (= M N) (not P) (not L))
     (or B (not P) (not L))
     (or (not O) (and L P))
     (= O true)
     (not (= (<= 100000 N) B))
     (= 6 v_17))
      )
      (main_1 v_17 D E C G H I J K)
    )
  )
)
(assert
  (forall ( (A Int) (B Int) (C Bool) (D Int) (E Int) (F Int) (G Int) (H Int) (I Int) (J Int) (K Int) (L Bool) (M Int) (N Bool) (O Bool) (P Bool) (Q Bool) (R Int) (v_18 Int) (v_19 Int) ) 
    (=>
      (and
        (main_1 v_18 D E F G H I J K)
        (and (= 6 v_18)
     (= B (+ E (* 4 F)))
     (= M (+ 1 F))
     (or (not C) (not O) (not L))
     (or (= A R) (not Q) (not N))
     (or (= R 0) (not Q) (not N))
     (or (not P) (and N Q))
     (or (not N) (and L O))
     (= P true)
     (not (= (<= 100000 M) C))
     (= 7 v_19))
      )
      (main_1 v_19 A E F G H I J K)
    )
  )
)
(assert
  (forall ( (A Bool) (B Int) (C Int) (D Bool) (E Bool) (F Int) (G Int) (H Int) (I Int) (J Int) (K Int) (L Int) (M Int) (N Int) (O Bool) (P Int) (Q Int) (R Bool) (S Bool) (v_19 Int) (v_20 Int) ) 
    (=>
      (and
        (main_1 v_19 G H I J K L M N)
        (and (= 7 v_19)
     (= D (= C 47))
     (not (= D E))
     (= B (+ H (* 4 G)))
     (= Q (+ 1 G))
     (or (= F P) (not S) (not O))
     (or (= P Q) (not S) (not O))
     (or (not E) (not S) (not O))
     (or (not R) (and O S))
     (= A true)
     (= R true)
     (not (= (<= 100000 G) A))
     (= 7 v_20))
      )
      (main_1 v_20 F H I J K L M N)
    )
  )
)
(assert
  (forall ( (A Bool) (B Int) (C Int) (D Bool) (E Bool) (F Int) (G Int) (H Int) (I Int) (J Int) (K Int) (L Int) (M Int) (N Bool) (O Int) (P Bool) (Q Bool) (v_17 Int) (v_18 Int) ) 
    (=>
      (and
        (main_1 v_17 F G H I J K L M)
        (and (= 7 v_17)
     (= D (= C 47))
     (not (= D E))
     (= B (+ G (* 4 F)))
     (= O (+ 1 F))
     (or (not Q) (not N) E)
     (or (not P) (and Q N))
     (= A true)
     (= P true)
     (not (= (<= 100000 F) A))
     (= 8 v_18))
      )
      (main_1 v_18 F G H I J K L M)
    )
  )
)
(assert
  (forall ( (A Int) (B Int) (C Int) (D Int) (E Int) (F Int) (G Int) (H Int) (v_8 Int) ) 
    (=>
      (and
        (main_1 v_8 A B C D E F G H)
        (= 8 v_8)
      )
      false
    )
  )
)

(check-sat)
(exit)
